100 500 200 500 10 100
54 421
16 355
12 299
48 336
57 422
31 303
68 325
59 232
24 421
77 311
59 206
39 417
24 246
33 431
89 416
63 341
69 237
89 327
99 387
48 492
61 257
22 280
72 316
17 351
13 248
63 400
98 288
37 247
50 448
96 355
10 263
88 449
44 441
93 336
11 489
67 334
26 371
44 326
14 425
37 423
88 387
33 427
81 388
61 257
73 451
22 447
31 306
96 213
75 421
77 221
46 425
55 352
22 217
13 482
39 403
51 314
83 475
65 213
51 463
46 395
89 381
50 274
74 487
91 381
51 385
41 264
100 205
11 304
37 343
18 414
98 438
45 284
50 466
96 422
42 267
67 489
16 407
56 282
70 299
82 299
66 313
23 441
24 228
95 289
46 227
70 314
25 378
77 224
32 395
18 470
84 210
65 307
45 470
34 259
20 300
41 399
99 369
58 480
86 282
64 466
